NAME : rnd24_50.tsp
TYPE : TSP
DIMENSION : 50
EDGE_WEIGHT_TYPE : EUC_2D
NODE_COORD_SECTION
1 755 783
2 54 415
3 293 88
4 879 258
5 811 607
6 19 505
7 481 627
8 571 32
9 868 376
10 249 735
11 167 882
12 772 561
13 507 634
14 248 921
15 63 86
16 238 859
17 473 80
18 100 59
19 858 466
20 127 842
21 606 698
22 896 923
23 562 540
24 989 629
25 181 786
26 966 597
27 375 47
28 37 457
29 10 96
30 817 218
31 347 989
32 995 233
33 868 883
34 419 146
35 532 212
36 964 561
37 361 831
38 135 192
39 107 792
40 867 868
41 521 605
42 959 51
43 727 481
44 952 99
45 614 343
46 39 788
47 730 756
48 833 847
49 659 127
50 41 964
